265 266 271 272 269 268 267 270 293 294 296 295 291 292 273 274 275 290 289 288 276 277 278 279 282 281 280 287 286 285 284 283 334 335 336 337 338 339 333 332 331 330 340 341 342 343 344 345 346 364 365 368 369 370 367 366 329 328 327 326 325 324 323 322 297 298 299 300 241 242 244 243 240 237 236 235 234 232 233 530 531 489 532 533 488 486 487 535 534 231 230 229 228 227 189 190 192 191 226 225 224 223 222 221 220 218 219 193 194 195 196 184 181 180 179 182 183 185 186 188 187 178 177 176 540 538 539 537 536 484 485 493 490 529 528 527 512 513 511 510 509 516 515 514 517 520 521 522 523 526 491 492 525 524 494 495 518 519 498 501 500 499 452 453 451 311 310 309 308 307 505 502 503 504 506 507 508 302 301 303 304 306 319 320 321 317 318 305 313 312 316 314 315 374 373 372 371 396 394 397 398 399 400 406 407 387 385 383 384 409 408 405 404 403 402 401 357 358 359 360 361 363 362 347 348 349 350 351 415 416 414 413 352 353 354 355 356 412 411 410 418 417 419 420 421 422 423 426 424 425 382 386 388 389 390 392 391 393 395 375 376 377 378 379 380 381 431 427 428 429 430 432 433 434 435 436 437 438 445 444 443 442 446 447 448 449 450 441 440 439 454 455 456 457 458 459 460 461 462 463 497 496 464 465 466 467 468 469 470 471 472 473 474 570 569 568 20 19 18 17 8 7 6 5 572 571 573 0 4 1 2 3 9 10 11 16 15 14 13 12 23 21 24 25 26 27 28 29 22 31 30 32 36 37 38 35 33 34 558 559 550 560 561 562 563 564 565 566 567 475 482 483 481 476 480 479 477 478 549 548 545 546 547 544 543 541 542 107 106 105 104 103 102 98 99 100 101 551 552 553 554 97 96 95 94 93 92 91 555 556 557 41 40 39 42 43 44 45 46 47 48 49 54 55 56 53 52 50 51 84 83 82 85 86 87 90 89 88 77 78 79 80 81 57 58 59 60 61 63 62 64 76 75 74 73 72 65 66 67 68 69 70 71 123 122 121 120 119 118 117 124 125 126 127 128 116 115 114 111 110 109 108 173 174 175 172 170 171 169 168 162 161 112 113 131 132 133 134 135 136 137 130 129 138 139 140 141 151 150 149 152 148 147 146 142 143 144 145 158 157 153 156 159 155 160 154 164 163 167 166 165 203 204 202 201 200 199 198 197 205 206 207 208 209 210 211 212 213 214 215 217 216 246 238 239 245 247 248 249 250 251 252 254 253 255 256 257 260 261 259 258 262 263 264